
===== New CPLEX run =====
Instance: /home/yorig/tuner/mpils-tests/instances/miplib/easy/lotsize.mps
Config: /scratch/yorig/mpils-results-grid-ticks-10000/easy/16proc/seed-9/4_lotsize_seed-9_20260425_202405/iterated_local_search/run_3_worker_11/ils_config_12541666678732816345.prm
========================

Selected objective sense:  MINIMIZE
Selected objective  name:  R1921
Selected RHS        name:  B
Selected bound      name:  BOUND
Version identifier: 22.1.2.0 | 2024-11-26 | 0edbb82fd
CPXPARAM_Threads                                 8
CPXPARAM_Parallel                                1
CPXPARAM_MIP_Cuts_Cliques                        2
CPXPARAM_MIP_Strategy_SubAlgorithm               4
CPXPARAM_MIP_Strategy_VariableSelect             2
CPXPARAM_MIP_Cuts_FlowCovers                     1
CPXPARAM_MIP_Cuts_Implied                        -1
CPXPARAM_MIP_Cuts_GUBCovers                      2
CPXPARAM_MIP_Limits_GomoryCand                   150
CPXPARAM_MIP_Cuts_PathCut                        -1
CPXPARAM_MIP_Cuts_MIRCut                         1
CPXPARAM_MIP_Cuts_Disjunctive                    1
CPXPARAM_DetTimeLimit                            10000
Tried aggregator 1 time.
MIP Presolve eliminated 595 rows and 0 columns.
MIP Presolve added 1190 rows and 0 columns.
MIP Presolve modified 10 coefficients.
Reduced MIP has 2515 rows, 2985 columns, and 7755 nonzeros.
Reduced MIP has 1195 binaries, 0 generals, 0 SOSs, and 0 indicators.
Presolve time = 0.00 sec. (4.53 ticks)
Probing fixed 0 vars, tightened 5487 bounds.
Probing time = 0.01 sec. (18.38 ticks)
Tried aggregator 2 times.
Detecting symmetries...
MIP Presolve modified 1206 coefficients.
Aggregator did 10 substitutions.
Reduced MIP has 2505 rows, 2975 columns, and 7735 nonzeros.
Reduced MIP has 1195 binaries, 0 generals, 0 SOSs, and 0 indicators.
Presolve time = 0.00 sec. (6.66 ticks)
Probing fixed 0 vars, tightened 2401 bounds.
Probing time = 0.00 sec. (6.41 ticks)
Clique table members: 190.
MIP emphasis: balance optimality and feasibility.
MIP search method: dynamic search.
Parallel mode: deterministic, using up to 8 threads.
Root relaxation solution time = 0.01 sec. (7.84 ticks)

        Nodes                                         Cuts/
   Node  Left     Objective  IInf  Best Integer    Best Bound    ItCnt     Gap

      0     0   348385.3466   472                 348385.3466      882         
      0     0   535834.0779   527                   Cuts: 726      903         
      0     0   801832.7252   590                   Cuts: 726      926         
      0     0   936460.3940   619                   Cuts: 726      954         
      0     0  1023045.2056   664                   Cuts: 726      983         
      0     0  1093318.9292   670                   Cuts: 726     1012         
Detecting symmetries...
      0     0  1141491.0768   702                   Cuts: 726     1040         
      0     0  1175067.6917   704                   Cuts: 726     1072         
      0     0  1197943.5090   732                   Cuts: 698     1104         
      0     0  1217094.5568   739                   Cuts: 572     1134         
      0     0  1232486.3397   796                   Cuts: 563     1163         
      0     0  1243053.3375   805                   Cuts: 401     1194         
      0     0  1252050.3943   783                   Cuts: 399     1224         
      0     0  1258440.1913   815                   Cuts: 298     1254         
      0     0  1262888.4334   791                   Cuts: 274     1284         
      0     0  1267877.1500   825                   Cuts: 276     1316         
      0     0  1270557.9132   824                   Cuts: 255     1346         
      0     0  1273513.5728   780                   Cuts: 236     1378         
      0     0  1275799.2960   792                   Cuts: 213     1409         
      0     0  1277578.3965   796                   Cuts: 192     1441         
      0     0  1279631.5529   813                   Cuts: 177     1472         
      0     0  1281754.3596   817                   Cuts: 147     1502         
      0     0  1282848.9937   812                   Cuts: 150     1534         
      0     0  1284306.1885   796                   Cuts: 164     1567         
      0     0  1284946.1441   815                   Cuts: 110     1599         
      0     0  1285461.9180   795                   Cuts: 114     1631         
      0     0  1285851.7538   826                    Cuts: 97     1663         
      0     0  1286716.8114   803                    Cuts: 83     1693         
      0     0  1287149.5323   843                   Cuts: 104     1722         
      0     0  1289652.6761   833                   Cuts: 101     1751         
      0     0  1290326.3547   842                    Cuts: 88     1782         
      0     0  1291071.5803   840                   Cuts: 122     1812         
      0     0  1291954.8051   834                    Cuts: 73     1842         
      0     0  1292888.6356   840                   Cuts: 130     1876         
      0     0  1293612.3615   833                   Cuts: 168     1909         
      0     0  1295033.4877   840                   Cuts: 112     1940         
      0     0  1295302.3209   846                    Cuts: 65     1972         
      0     0  1296065.2349   835                    Cuts: 46     2002         
      0     0  1296424.1715   841                    Cuts: 73     2033         

GUB cover cuts applied:  0
Clique cuts applied:  0
Cover cuts applied:  10
Flow cuts applied:  528
Mixed integer rounding cuts applied:  1076
Multi commodity flow cuts applied:  29
Gomory fractional cuts applied:  6
Disjunctive cuts applied:  0
Cone linearizations applied:  0

Root node processing (before b&c):
  Real time             =    8.94 sec. (10018.82 ticks)
Parallel b&c, 8 threads:
  Real time             =    0.00 sec. (0.00 ticks)
  Sync time (average)   =    0.00 sec.
  Wait time (average)   =    0.00 sec.
                          ------------
Total (root+branch&cut) =    8.94 sec. (10018.82 ticks)
Gap: unavailable
Lower bound: 1.29642e+06
End of CPLEX run. Time: 8.93746 seconds

===== New CPLEX run =====
Instance: /home/yorig/tuner/mpils-tests/instances/miplib/easy/lotsize.mps
Config: /scratch/yorig/mpils-results-grid-ticks-10000/easy/16proc/seed-9/4_lotsize_seed-9_20260425_202405/iterated_local_search/run_3_worker_11/ils_config_11268149681568245864.prm
========================

Selected objective sense:  MINIMIZE
Selected objective  name:  R1921
Selected RHS        name:  B
Selected bound      name:  BOUND
Version identifier: 22.1.2.0 | 2024-11-26 | 0edbb82fd
CPXPARAM_Threads                                 8
CPXPARAM_Parallel                                1
CPXPARAM_MIP_Cuts_Cliques                        2
CPXPARAM_MIP_Strategy_SubAlgorithm               4
CPXPARAM_MIP_Strategy_VariableSelect             2
CPXPARAM_MIP_Cuts_FlowCovers                     1
CPXPARAM_MIP_Cuts_Implied                        -1
CPXPARAM_MIP_Cuts_GUBCovers                      2
CPXPARAM_MIP_Limits_GomoryCand                   100
CPXPARAM_MIP_Cuts_PathCut                        -1
CPXPARAM_MIP_Cuts_MIRCut                         1
CPXPARAM_MIP_Cuts_Disjunctive                    1
CPXPARAM_DetTimeLimit                            10000
Tried aggregator 1 time.
MIP Presolve eliminated 595 rows and 0 columns.
MIP Presolve added 1190 rows and 0 columns.
MIP Presolve modified 10 coefficients.
Reduced MIP has 2515 rows, 2985 columns, and 7755 nonzeros.
Reduced MIP has 1195 binaries, 0 generals, 0 SOSs, and 0 indicators.
Presolve time = 0.00 sec. (4.53 ticks)
Probing fixed 0 vars, tightened 5487 bounds.
Probing time = 0.01 sec. (18.38 ticks)
Tried aggregator 2 times.
Detecting symmetries...
MIP Presolve modified 1206 coefficients.
Aggregator did 10 substitutions.
Reduced MIP has 2505 rows, 2975 columns, and 7735 nonzeros.
Reduced MIP has 1195 binaries, 0 generals, 0 SOSs, and 0 indicators.
Presolve time = 0.01 sec. (6.66 ticks)
Probing fixed 0 vars, tightened 2401 bounds.
Probing time = 0.00 sec. (6.41 ticks)
Clique table members: 190.
MIP emphasis: balance optimality and feasibility.
MIP search method: dynamic search.
Parallel mode: deterministic, using up to 8 threads.
Root relaxation solution time = 0.01 sec. (7.84 ticks)

        Nodes                                         Cuts/
   Node  Left     Objective  IInf  Best Integer    Best Bound    ItCnt     Gap

      0     0   348385.3466   472                 348385.3466      882         
      0     0   550951.6765   495                   Cuts: 726      904         
      0     0   811955.9409   581                   Cuts: 726      927         
      0     0   943191.7763   611                   Cuts: 726      955         
      0     0  1032838.4438   645                   Cuts: 726      983         
      0     0  1100994.1776   657                   Cuts: 726     1012         
Detecting symmetries...
      0     0  1151341.1553   686                   Cuts: 726     1044         
      0     0  1182628.8289   719                   Cuts: 726     1075         
      0     0  1204694.4661   735                   Cuts: 636     1106         
      0     0  1219320.3982   737                   Cuts: 505     1137         
      0     0  1232295.7078   735                   Cuts: 526     1167         
      0     0  1241238.8470   781                   Cuts: 490     1200         
      0     0  1249816.7969   799                   Cuts: 408     1231         
      0     0  1256434.6215   804                   Cuts: 334     1265         
      0     0  1261592.2713   812                   Cuts: 351     1298         
      0     0  1265449.2158   816                   Cuts: 262     1333         
      0     0  1270434.7750   825                   Cuts: 302     1366         
      0     0  1273180.9098   824                   Cuts: 254     1400         
      0     0  1275683.5819   841                   Cuts: 231     1431         
      0     0  1278350.0551   859                   Cuts: 258     1464         
      0     0  1280739.4963   850                   Cuts: 240     1498         
      0     0  1283645.2076   852                   Cuts: 210     1531         
      0     0  1285647.2557   875                   Cuts: 187     1566         
      0     0  1286707.9746   845                   Cuts: 139     1596         
      0     0  1288097.4482   835                   Cuts: 152     1631         
      0     0  1288602.9636   851                   Cuts: 134     1665         
      0     0  1288926.5176   870                   Cuts: 150     1696         
      0     0  1289761.9612   873                   Cuts: 123     1731         
      0     0  1291049.8376   868                    Cuts: 74     1764         
      0     0  1292271.7513   865                   Cuts: 137     1800         
      0     0  1293732.4374   864                   Cuts: 147     1830         
      0     0  1294748.2749   863                   Cuts: 140     1860         
      0     0  1295504.8705   847                   Cuts: 126     1891         
      0     0  1296267.0858   860                    Cuts: 95     1920         
*     0+    0                      2299721.0000  1296267.0858            43.63%
      0     0  1296687.7550   848  2299721.0000      Cuts: 72     1950   43.62%

GUB cover cuts applied:  0
Clique cuts applied:  0
Cover cuts applied:  9
Flow cuts applied:  485
Mixed integer rounding cuts applied:  1071
Multi commodity flow cuts applied:  27
Gomory fractional cuts applied:  4
Disjunctive cuts applied:  0
Cone linearizations applied:  0

Root node processing (before b&c):
  Real time             =    8.64 sec. (10011.84 ticks)
Parallel b&c, 8 threads:
  Real time             =    0.00 sec. (0.00 ticks)
  Sync time (average)   =    0.00 sec.
  Wait time (average)   =    0.00 sec.
                          ------------
Total (root+branch&cut) =    8.64 sec. (10011.84 ticks)
Gap: 43.62%
Upper bound: 2.29972e+06
Lower bound: 1.29669e+06
End of CPLEX run. Time: 8.646 seconds

===== New CPLEX run =====
Instance: /home/yorig/tuner/mpils-tests/instances/miplib/easy/lotsize.mps
Config: /scratch/yorig/mpils-results-grid-ticks-10000/easy/16proc/seed-9/4_lotsize_seed-9_20260425_202405/iterated_local_search/run_3_worker_11/ils_config_2158786669657236207.prm
========================

Selected objective sense:  MINIMIZE
Selected objective  name:  R1921
Selected RHS        name:  B
Selected bound      name:  BOUND
Version identifier: 22.1.2.0 | 2024-11-26 | 0edbb82fd
CPXPARAM_Threads                                 8
CPXPARAM_Parallel                                1
CPXPARAM_MIP_Cuts_Cliques                        2
CPXPARAM_MIP_Strategy_SubAlgorithm               4
CPXPARAM_MIP_Strategy_VariableSelect             2
CPXPARAM_MIP_Cuts_FlowCovers                     2
CPXPARAM_MIP_Cuts_Implied                        -1
CPXPARAM_MIP_Cuts_GUBCovers                      2
CPXPARAM_MIP_Limits_GomoryCand                   100
CPXPARAM_MIP_Cuts_PathCut                        -1
CPXPARAM_MIP_Cuts_MIRCut                         1
CPXPARAM_MIP_Cuts_Disjunctive                    1
CPXPARAM_DetTimeLimit                            10000
Tried aggregator 1 time.
MIP Presolve eliminated 595 rows and 0 columns.
MIP Presolve added 1190 rows and 0 columns.
MIP Presolve modified 10 coefficients.
Reduced MIP has 2515 rows, 2985 columns, and 7755 nonzeros.
Reduced MIP has 1195 binaries, 0 generals, 0 SOSs, and 0 indicators.
Presolve time = 0.00 sec. (4.53 ticks)
Probing fixed 0 vars, tightened 5487 bounds.
Probing time = 0.01 sec. (18.38 ticks)
Tried aggregator 2 times.
Detecting symmetries...
MIP Presolve modified 1206 coefficients.
Aggregator did 10 substitutions.
Reduced MIP has 2505 rows, 2975 columns, and 7735 nonzeros.
Reduced MIP has 1195 binaries, 0 generals, 0 SOSs, and 0 indicators.
Presolve time = 0.00 sec. (6.66 ticks)
Probing fixed 0 vars, tightened 2401 bounds.
Probing time = 0.00 sec. (6.41 ticks)
Clique table members: 190.
MIP emphasis: balance optimality and feasibility.
MIP search method: dynamic search.
Parallel mode: deterministic, using up to 8 threads.
Root relaxation solution time = 0.01 sec. (7.84 ticks)

        Nodes                                         Cuts/
   Node  Left     Objective  IInf  Best Integer    Best Bound    ItCnt     Gap

      0     0   348385.3466   472                 348385.3466      882         
      0     0   550951.6765   495                   Cuts: 726      904         
      0     0   811955.9409   581                   Cuts: 726      927         
      0     0   943191.7763   611                   Cuts: 726      955         
      0     0  1032838.4438   645                   Cuts: 726      983         
      0     0  1100994.1776   657                   Cuts: 726     1012         
Detecting symmetries...
      0     0  1151341.1553   686                   Cuts: 726     1044         
      0     0  1182628.8289   719                   Cuts: 726     1075         
      0     0  1204694.4661   735                   Cuts: 636     1106         
      0     0  1219320.3982   737                   Cuts: 505     1137         
      0     0  1232295.7078   735                   Cuts: 526     1167         
      0     0  1241238.8470   781                   Cuts: 490     1200         
      0     0  1249816.7969   799                   Cuts: 408     1231         
      0     0  1256434.6215   804                   Cuts: 334     1265         
      0     0  1261592.2713   812                   Cuts: 351     1298         
      0     0  1265449.2158   816                   Cuts: 262     1333         
      0     0  1270434.7750   825                   Cuts: 302     1366         
      0     0  1273180.9098   824                   Cuts: 254     1400         
      0     0  1275683.5819   841                   Cuts: 231     1431         
      0     0  1278350.0551   859                   Cuts: 258     1464         
      0     0  1280739.4963   850                   Cuts: 240     1498         
      0     0  1283645.2076   852                   Cuts: 210     1531         
      0     0  1285647.2557   875                   Cuts: 187     1566         
      0     0  1286707.9746   845                   Cuts: 139     1596         
      0     0  1288097.4482   835                   Cuts: 152     1631         
      0     0  1288602.9636   851                   Cuts: 134     1665         
      0     0  1288926.5176   870                   Cuts: 150     1696         
      0     0  1289761.9612   873                   Cuts: 123     1731         
      0     0  1291049.8376   868                    Cuts: 74     1764         
      0     0  1292271.7513   865                   Cuts: 137     1800         
      0     0  1293732.4374   864                   Cuts: 147     1830         
      0     0  1294748.2749   863                   Cuts: 140     1860         
      0     0  1295504.8705   847                   Cuts: 126     1891         
      0     0  1296267.0858   860                    Cuts: 95     1920         
*     0+    0                      2299721.0000  1296267.0858            43.63%
      0     0  1296687.7550   848  2299721.0000      Cuts: 72     1950   43.62%

GUB cover cuts applied:  0
Clique cuts applied:  0
Cover cuts applied:  9
Flow cuts applied:  485
Mixed integer rounding cuts applied:  1071
Multi commodity flow cuts applied:  27
Gomory fractional cuts applied:  4
Disjunctive cuts applied:  0
Cone linearizations applied:  0

Root node processing (before b&c):
  Real time             =    8.58 sec. (10011.84 ticks)
Parallel b&c, 8 threads:
  Real time             =    0.00 sec. (0.00 ticks)
  Sync time (average)   =    0.00 sec.
  Wait time (average)   =    0.00 sec.
                          ------------
Total (root+branch&cut) =    8.58 sec. (10011.84 ticks)
Gap: 43.62%
Upper bound: 2.29972e+06
Lower bound: 1.29669e+06
End of CPLEX run. Time: 8.57961 seconds

===== New CPLEX run =====
Instance: /home/yorig/tuner/mpils-tests/instances/miplib/easy/lotsize.mps
Config: /scratch/yorig/mpils-results-grid-ticks-10000/easy/16proc/seed-9/4_lotsize_seed-9_20260425_202405/iterated_local_search/run_3_worker_11/ils_config_11665730995293569567.prm
========================

Selected objective sense:  MINIMIZE
Selected objective  name:  R1921
Selected RHS        name:  B
Selected bound      name:  BOUND
Version identifier: 22.1.2.0 | 2024-11-26 | 0edbb82fd
CPXPARAM_Threads                                 8
CPXPARAM_Parallel                                1
CPXPARAM_MIP_Cuts_Cliques                        -1
CPXPARAM_MIP_Strategy_SubAlgorithm               4
CPXPARAM_MIP_Strategy_VariableSelect             2
CPXPARAM_MIP_Cuts_FlowCovers                     1
CPXPARAM_MIP_Cuts_Implied                        -1
CPXPARAM_MIP_Cuts_GUBCovers                      2
CPXPARAM_MIP_Limits_GomoryCand                   100
CPXPARAM_MIP_Cuts_PathCut                        -1
CPXPARAM_MIP_Cuts_MIRCut                         1
CPXPARAM_MIP_Cuts_Disjunctive                    1
CPXPARAM_DetTimeLimit                            10000
Tried aggregator 1 time.
MIP Presolve eliminated 595 rows and 0 columns.
MIP Presolve added 1190 rows and 0 columns.
MIP Presolve modified 10 coefficients.
Reduced MIP has 2515 rows, 2985 columns, and 7755 nonzeros.
Reduced MIP has 1195 binaries, 0 generals, 0 SOSs, and 0 indicators.
Presolve time = 0.00 sec. (4.53 ticks)
Probing fixed 0 vars, tightened 5487 bounds.
Probing time = 0.01 sec. (18.38 ticks)
Tried aggregator 2 times.
Detecting symmetries...
MIP Presolve modified 1206 coefficients.
Aggregator did 10 substitutions.
Reduced MIP has 2505 rows, 2975 columns, and 7735 nonzeros.
Reduced MIP has 1195 binaries, 0 generals, 0 SOSs, and 0 indicators.
Presolve time = 0.00 sec. (6.66 ticks)
Probing fixed 0 vars, tightened 2401 bounds.
Probing time = 0.00 sec. (6.41 ticks)
Clique table members: 190.
MIP emphasis: balance optimality and feasibility.
MIP search method: dynamic search.
Parallel mode: deterministic, using up to 8 threads.
Root relaxation solution time = 0.01 sec. (7.84 ticks)

        Nodes                                         Cuts/
   Node  Left     Objective  IInf  Best Integer    Best Bound    ItCnt     Gap

      0     0   348385.3466   472                 348385.3466      882         
      0     0   550951.6765   495                   Cuts: 726      904         
      0     0   812330.9466   581                   Cuts: 726      927         
      0     0   942994.2057   610                   Cuts: 726      955         
      0     0  1036818.7664   622                   Cuts: 726      984         
      0     0  1104205.0271   640                   Cuts: 726     1013         
Detecting symmetries...
      0     0  1146931.9413   711                   Cuts: 726     1041         
      0     0  1176915.5270   738                   Cuts: 726     1071         
      0     0  1201090.6801   749                   Cuts: 726     1104         
      0     0  1221341.3291   764                   Cuts: 571     1135         
      0     0  1236643.0048   743                   Cuts: 475     1169         
      0     0  1246135.0655   745                   Cuts: 529     1201         
      0     0  1254968.7279   746                   Cuts: 483     1235         
      0     0  1262464.1695   773                   Cuts: 352     1267         
      0     0  1268349.6240   797                   Cuts: 346     1300         
      0     0  1274924.6990   795                   Cuts: 280     1334         
      0     0  1280330.1848   818                   Cuts: 325     1365         
      0     0  1284548.4763   820                   Cuts: 314     1398         
      0     0  1287253.1280   812                   Cuts: 266     1430         
      0     0  1289948.6341   832                   Cuts: 275     1463         
      0     0  1292485.8751   823                   Cuts: 237     1496         
      0     0  1295024.3531   818                   Cuts: 252     1527         
      0     0  1296972.8013   825                   Cuts: 201     1555         
*     0+    0                      2869727.0000  1296972.8013            54.81%
      0     0  1297871.4646   834  2869727.0000     Cuts: 243     1586   54.77%
      0     0  1298862.4133   813  2869727.0000     Cuts: 104     1617   54.74%
      0     0  1299782.9569   813  2869727.0000     Cuts: 165     1650   54.71%
      0     0  1300801.6058   838  2869727.0000      Cuts: 88     1679   54.67%
      0     0  1301577.0396   834  2869727.0000      Cuts: 99     1709   54.64%
      0     0  1302159.3175   832  2869727.0000     Cuts: 106     1740   54.62%
*     0+    0                      2693225.0000  1302159.3175            51.65%
      0     0  1302354.8989   844  2693225.0000      Cuts: 70     1768   51.64%
      0     0  1302596.3533   842  2693225.0000      Cuts: 33     1796   51.63%
Detecting symmetries...

GUB cover cuts applied:  0
Cover cuts applied:  9
Flow cuts applied:  482
Mixed integer rounding cuts applied:  1096
Multi commodity flow cuts applied:  29
Gomory fractional cuts applied:  4
Disjunctive cuts applied:  0
Cone linearizations applied:  0

Root node processing (before b&c):
  Real time             =    8.96 sec. (10003.91 ticks)
Parallel b&c, 8 threads:
  Real time             =    0.00 sec. (0.00 ticks)
  Sync time (average)   =    0.00 sec.
  Wait time (average)   =    0.00 sec.
                          ------------
Total (root+branch&cut) =    8.96 sec. (10003.91 ticks)
Gap: 51.63%
Upper bound: 2.69323e+06
Lower bound: 1.3026e+06
End of CPLEX run. Time: 8.95719 seconds

===== New CPLEX run =====
Instance: /home/yorig/tuner/mpils-tests/instances/miplib/easy/lotsize.mps
Config: /scratch/yorig/mpils-results-grid-ticks-10000/easy/16proc/seed-9/4_lotsize_seed-9_20260425_202405/iterated_local_search/run_3_worker_11/ils_config_7493874678754250460.prm
========================

Selected objective sense:  MINIMIZE
Selected objective  name:  R1921
Selected RHS        name:  B
Selected bound      name:  BOUND
Version identifier: 22.1.2.0 | 2024-11-26 | 0edbb82fd
CPXPARAM_Threads                                 8
CPXPARAM_Parallel                                1
CPXPARAM_MIP_Cuts_Cliques                        2
CPXPARAM_MIP_Strategy_SubAlgorithm               4
CPXPARAM_MIP_Strategy_VariableSelect             -1
CPXPARAM_MIP_Cuts_FlowCovers                     1
CPXPARAM_MIP_Cuts_Implied                        -1
CPXPARAM_MIP_Cuts_GUBCovers                      2
CPXPARAM_MIP_Limits_GomoryCand                   100
CPXPARAM_MIP_Cuts_PathCut                        -1
CPXPARAM_MIP_Cuts_MIRCut                         1
CPXPARAM_MIP_Cuts_Disjunctive                    1
CPXPARAM_DetTimeLimit                            10000
Tried aggregator 1 time.
MIP Presolve eliminated 595 rows and 0 columns.
MIP Presolve added 1190 rows and 0 columns.
MIP Presolve modified 10 coefficients.
Reduced MIP has 2515 rows, 2985 columns, and 7755 nonzeros.
Reduced MIP has 1195 binaries, 0 generals, 0 SOSs, and 0 indicators.
Presolve time = 0.00 sec. (4.53 ticks)
Probing fixed 0 vars, tightened 5487 bounds.
Probing time = 0.01 sec. (18.38 ticks)
Tried aggregator 2 times.
Detecting symmetries...
MIP Presolve modified 1206 coefficients.
Aggregator did 10 substitutions.
Reduced MIP has 2505 rows, 2975 columns, and 7735 nonzeros.
Reduced MIP has 1195 binaries, 0 generals, 0 SOSs, and 0 indicators.
Presolve time = 0.00 sec. (6.66 ticks)
Probing fixed 0 vars, tightened 2401 bounds.
Probing time = 0.00 sec. (6.41 ticks)
Clique table members: 190.
MIP emphasis: balance optimality and feasibility.
MIP search method: dynamic search.
Parallel mode: deterministic, using up to 8 threads.
Root relaxation solution time = 0.01 sec. (7.84 ticks)

        Nodes                                         Cuts/
   Node  Left     Objective  IInf  Best Integer    Best Bound    ItCnt     Gap

      0     0   348385.3466   472                 348385.3466      882         
      0     0   550951.6765   495                   Cuts: 726      904         
      0     0   811955.9409   581                   Cuts: 726      927         
      0     0   943191.7763   611                   Cuts: 726      955         
      0     0  1032838.4438   645                   Cuts: 726      983         
      0     0  1100994.1776   657                   Cuts: 726     1012         
Detecting symmetries...
      0     0  1151341.1553   686                   Cuts: 726     1044         
      0     0  1182628.8289   719                   Cuts: 726     1075         
      0     0  1204694.4661   735                   Cuts: 636     1106         
      0     0  1219320.3982   737                   Cuts: 505     1137         
      0     0  1232295.7078   735                   Cuts: 526     1167         
      0     0  1241238.8470   781                   Cuts: 490     1200         
      0     0  1249816.7969   799                   Cuts: 408     1231         
      0     0  1256434.6215   804                   Cuts: 334     1265         
      0     0  1261592.2713   812                   Cuts: 351     1298         
      0     0  1265449.2158   816                   Cuts: 262     1333         
      0     0  1270434.7750   825                   Cuts: 302     1366         
      0     0  1273180.9098   824                   Cuts: 254     1400         
      0     0  1275683.5819   841                   Cuts: 231     1431         
      0     0  1278350.0551   859                   Cuts: 258     1464         
      0     0  1280739.4963   850                   Cuts: 240     1498         
      0     0  1283645.2076   852                   Cuts: 210     1531         
      0     0  1285647.2557   875                   Cuts: 187     1566         
      0     0  1286707.9746   845                   Cuts: 139     1596         
      0     0  1288097.4482   835                   Cuts: 152     1631         
      0     0  1288602.9636   851                   Cuts: 134     1665         
      0     0  1288926.5176   870                   Cuts: 150     1696         
      0     0  1289761.9612   873                   Cuts: 123     1731         
      0     0  1291049.8376   868                    Cuts: 74     1764         
      0     0  1292271.7513   865                   Cuts: 137     1800         
      0     0  1293732.4374   864                   Cuts: 147     1830         
      0     0  1294748.2749   863                   Cuts: 140     1860         
      0     0  1295504.8705   847                   Cuts: 126     1891         
      0     0  1296267.0858   860                    Cuts: 95     1920         
*     0+    0                      2299721.0000  1296267.0858            43.63%
      0     0  1296687.7550   848  2299721.0000      Cuts: 72     1950   43.62%

GUB cover cuts applied:  0
Clique cuts applied:  0
Cover cuts applied:  9
Flow cuts applied:  485
Mixed integer rounding cuts applied:  1071
Multi commodity flow cuts applied:  27
Gomory fractional cuts applied:  4
Disjunctive cuts applied:  0
Cone linearizations applied:  0

Root node processing (before b&c):
  Real time             =    8.31 sec. (10011.80 ticks)
Parallel b&c, 8 threads:
  Real time             =    0.00 sec. (0.00 ticks)
  Sync time (average)   =    0.00 sec.
  Wait time (average)   =    0.00 sec.
                          ------------
Total (root+branch&cut) =    8.31 sec. (10011.80 ticks)
Gap: 43.62%
Upper bound: 2.29972e+06
Lower bound: 1.29669e+06
End of CPLEX run. Time: 8.31523 seconds
